NAME          MIP_VARIED_EX05
ROWS
 N   OBJ
 L   C1
 E   C2
COLUMNS
    X1       OBJ       1
    X1       C2       1
    X2       OBJ       3
    X2       C1       3
    X3       OBJ       1
RHS
    RHS1     C1        4
    RHS1     C2        3
BOUNDS
 BV BND1     X1
 BV BND1     X2
 BV BND1     X3
ENDATA